This is Ipopt version 3.14.4, running with linear solver MUMPS 5.4.1.

Number of nonzeros in equality constraint Jacobian...:    19061
Number of nonzeros in inequality constraint Jacobian.:     9464
Number of nonzeros in Lagrangian Hessian.............:        0

Total number of variables............................:     6568
                     variables with only lower bounds:     1517
                variables with lower and upper bounds:        0
                     variables with only upper bounds:        0
Total number of equality constraints.................:     5217
Total number of inequality constraints...............:     1796
        inequality constraints with only lower bounds:        0
   inequality constraints with lower and upper bounds:        0
        inequality constraints with only upper bounds:     1796

iter    objective    inf_pr   inf_du lg(mu)  ||d||  lg(rg) alpha_du alpha_pr  ls
   0  4.5910009e+02 6.84e+00 2.94e+00   0.0 0.00e+00    -  0.00e+00 0.00e+00   0
   1  7.0560207e+02 6.07e+00 1.01e+01  -0.6 4.27e+00    -  2.08e-02 1.13e-01f  1
   2  1.9640144e+03 5.57e+00 2.13e+01   0.1 5.41e+00    -  2.32e-01 8.20e-02f  1
   3  4.2207969e+03 3.90e+00 2.51e+01   0.2 3.76e+00    -  2.44e-01 2.99e-01f  1
   4  3.1254321e+03 1.92e+00 1.64e+01  -0.1 1.88e+00    -  4.94e-01 5.07e-01f  1
   5  2.3909757e+03 1.26e+00 1.77e+01  -0.5 3.37e+00    -  4.01e-01 3.42e-01f  1
   6  2.4707861e+03 5.84e-01 1.19e+02  -0.3 9.96e-01    -  9.42e-01 5.38e-01f  1
   7  2.1200206e+03 2.96e-01 1.64e+02  -0.6 4.52e-01    -  8.20e-01 4.93e-01f  1
   8  1.6395930e+03 1.45e-01 1.00e+02  -0.8 1.15e+00    -  5.62e-01 5.09e-01f  1
   9  1.3410122e+03 2.70e-02 1.97e+02  -0.6 1.31e+00    -  6.21e-01 8.14e-01f  1
iter    objective    inf_pr   inf_du lg(mu)  ||d||  lg(rg) alpha_du alpha_pr  ls
  10  1.1843870e+03 8.72e-03 5.46e+02  -0.8 1.23e+00    -  9.70e-01 8.38e-01H  1
  11  1.5870677e+03 4.38e-02 1.88e+03  -0.5 5.60e-01    -  9.83e-01 9.44e-01f  1
  12  1.3384955e+03 1.68e-02 3.94e+05  -0.6 6.33e-01    -  1.88e-01 7.94e-01f  1
  13  1.2763620e+03 5.25e-03 1.15e+05  -0.6 1.85e-01    -  9.60e-01 1.00e+00f  1
  14  1.1236556e+03 4.14e-03 3.68e+00  -0.7 2.59e-01    -  1.00e+00 1.00e+00f  1
  15  8.2935737e+02 2.34e-03 2.56e+06  -1.0 3.66e-01    -  9.90e-01 7.64e-01f  1
  16  6.7291645e+02 1.96e-03 9.02e+03  -1.1 4.09e-01    -  9.72e-01 9.99e-01H  1
  17  5.8276483e+02 5.90e-03 3.56e+05  -1.2 2.62e-01    -  1.00e+00 8.08e-01f  1
  18  5.5247957e+02 4.09e-03 5.61e+03  -1.2 3.13e-01    -  7.75e-01 1.00e+00f  1
  19  4.4688870e+02 1.32e-03 3.24e+00  -1.4 1.44e-01    -  1.00e+00 1.00e+00f  1
iter    objective    inf_pr   inf_du lg(mu)  ||d||  lg(rg) alpha_du alpha_pr  ls
  20  3.9280511e+02 3.83e-03 6.06e+05  -1.5 5.47e-01    -  9.96e-01 5.90e-01f  1
  21  3.6484969e+02 2.46e-03 9.24e+05  -1.7 4.96e-01    -  1.00e+00 3.16e-01f  1
  22  3.4024785e+02 1.80e-03 7.16e+05  -1.7 3.98e-01    -  5.83e-01 2.98e-01f  1
  23  3.0993425e+02 2.96e-03 3.22e+05  -1.8 3.67e-01    -  6.95e-01 5.91e-01f  1
  24  2.9577451e+02 2.01e-03 3.04e+05  -1.9 4.49e-01    -  1.00e+00 5.70e-01H  1
  25  3.2604293e+02 3.22e-03 1.01e+05  -1.6 1.65e-01    -  9.24e-01 1.00e+00f  1
  26  3.1289354e+02 2.38e-03 2.84e+05  -1.7 1.45e-01    -  7.66e-01 3.05e-01f  1
  27  2.7404468e+02 1.38e-03 9.26e+05  -2.2 2.35e-01    -  1.00e+00 5.09e-01f  1
  28  4.3609072e+02 1.24e-03 6.45e+05  -1.5 3.77e-01    -  7.55e-01 1.00e+00H  1
  29  3.4502997e+02 1.06e-03 5.57e+05  -1.7 3.28e-01    -  1.00e+00 4.85e-01f  1
iter    objective    inf_pr   inf_du lg(mu)  ||d||  lg(rg) alpha_du alpha_pr  ls
  30  2.7168771e+02 2.05e-03 5.21e+05  -2.0 3.16e-01    -  1.00e+00 6.90e-01f  1
  31  2.7565340e+02 1.18e-03 3.67e+05  -1.6 2.16e-01    -  8.65e-01 3.60e-01f  1
  32  2.6998889e+02 7.80e-05 2.35e+05  -1.8 3.05e-02    -  5.74e-01 1.00e+00f  1
  33  2.4024296e+02 1.02e-03 2.76e+00  -2.0 1.54e-01    -  1.00e+00 1.00e+00f  1
  34  3.1497255e+02 1.96e-03 6.01e+05  -1.5 5.66e-01    -  8.24e-01 5.65e-01f  1
  35  2.8571752e+02 3.75e-03 6.79e+03  -1.7 2.29e-01    -  1.00e+00 9.61e-01f  1
  36  2.8494539e+02 1.32e-03 8.20e+01  -1.7 1.42e-01    -  7.32e-01 9.88e-01h  1
  37  2.7744646e+02 6.12e-04 1.28e+00  -1.7 1.11e-01    -  8.33e-01 1.00e+00f  1
  38  2.4280406e+02 4.60e-04 3.50e+05  -2.5 2.17e-01    -  6.52e-01 4.66e-01f  1
  39  2.2324317e+02 1.25e-04 3.24e+04  -2.0 2.93e-01    -  1.00e+00 9.23e-01F  1
iter    objective    inf_pr   inf_du lg(mu)  ||d||  lg(rg) alpha_du alpha_pr  ls
  40  2.1712961e+02 1.23e-03 2.70e+04  -2.1 3.07e-01    -  1.00e+00 5.21e-01f  1
  41  2.1321453e+02 1.59e-03 1.31e+04  -2.0 4.18e-01    -  6.79e-01 4.85e-01f  1
  42  2.4693876e+02 1.42e-03 1.68e+04  -1.8 1.74e-01    -  9.76e-01 1.00e+00f  1
  43  2.3371034e+02 1.08e-03 1.10e+05  -1.9 9.04e-02    -  1.00e+00 6.51e-01f  1
  44  2.2415542e+02 9.68e-04 2.39e+00  -1.9 1.16e-01    -  1.00e+00 1.00e+00f  1
  45  2.2434963e+02 1.16e-03 2.64e+00  -1.9 1.21e-01    -  1.00e+00 1.00e+00f  1
  46  2.2242825e+02 5.84e-04 3.23e+00  -1.9 1.12e-01    -  1.00e+00 9.09e-01f  1
  47  2.0166031e+02 3.80e-04 1.24e+05  -2.2 8.53e-02    -  1.00e+00 7.92e-01f  1
  48  2.4683828e+02 8.91e-04 5.48e+04  -1.8 1.35e-01    -  9.47e-01 1.00e+00f  1
  49  2.2621571e+02 1.16e-03 4.32e+00  -1.9 1.18e-01    -  1.00e+00 1.00e+00f  1
iter    objective    inf_pr   inf_du lg(mu)  ||d||  lg(rg) alpha_du alpha_pr  ls
  50  2.2458153e+02 2.00e-04 5.50e+00  -1.9 1.41e-01    -  8.96e-01 8.84e-01H  1
  51  2.2094469e+02 5.79e-04 1.34e+00  -1.9 7.03e-02    -  1.00e+00 9.33e-01f  1
  52  2.0060701e+02 1.55e-04 1.00e+05  -2.1 8.09e-02    -  9.99e-01 8.40e-01f  1
  53  1.9577008e+02 1.60e-04 2.94e+05  -2.3 2.32e-01    -  1.00e+00 1.84e-01f  1
  54  2.6130386e+02 3.79e-03 2.37e+05  -1.7 3.06e-01    -  8.87e-01 6.85e-01f  1
  55  2.2315930e+02 2.60e-03 4.76e+00  -1.8 1.20e-01    -  1.00e+00 1.00e+00f  1
  56  2.2326277e+02 1.90e-04 2.77e+00  -1.8 4.66e-02    -  1.00e+00 1.00e+00h  1
  57  2.2171488e+02 6.45e-05 4.27e-01  -1.8 2.36e-02    -  1.00e+00 1.00e+00f  1
  58  1.9217350e+02 2.78e-04 2.83e+05  -2.3 1.41e-01    -  9.94e-01 7.07e-01f  1
  59  2.1956093e+02 3.22e-03 2.60e+05  -1.8 6.67e-01    -  1.00e+00 6.65e-01f  1
iter    objective    inf_pr   inf_du lg(mu)  ||d||  lg(rg) alpha_du alpha_pr  ls
  60  2.1483763e+02 2.62e-03 4.97e+04  -1.9 8.53e-01    -  6.54e-01 3.57e-01f  1
  61  2.1419702e+02 1.54e-03 1.39e+04  -1.9 6.33e-01    -  5.69e-01 4.84e-01H  1
  62  2.0289500e+02 1.13e-03 1.32e+04  -1.9 1.52e-01    -  6.61e-01 8.48e-01f  1
  63  2.0621073e+02 6.40e-05 6.02e+03  -1.9 1.27e-01    -  6.88e-01 9.67e-01H  1
  64  1.8320520e+02 7.10e-04 1.42e+05  -2.2 2.04e-01    -  1.00e+00 7.44e-01f  1
  65  2.0365162e+02 7.22e-04 5.70e+04  -1.9 3.48e-01    -  7.75e-01 8.26e-01f  1
  66  1.9211535e+02 5.15e-04 6.76e+04  -2.0 3.64e-01    -  1.00e+00 7.29e-01f  1
  67  1.7595564e+02 8.18e-04 2.47e+05  -2.4 1.67e-01    -  1.00e+00 5.70e-01f  1
  68  1.6712891e+02 5.53e-04 5.41e+04  -2.3 7.35e-02    -  1.00e+00 7.41e-01f  1
  69  1.6091262e+02 3.23e-04 2.39e+05  -2.9 1.47e-01    -  1.00e+00 3.96e-01f  1
iter    objective    inf_pr   inf_du lg(mu)  ||d||  lg(rg) alpha_du alpha_pr  ls
  70  1.5914872e+02 2.99e-04 2.45e+05  -4.0 1.46e+00    -  2.26e-01 5.02e-02f  1
  71  1.5690829e+02 5.45e-04 1.85e+05  -2.7 1.01e+00    -  3.31e-01 1.67e-01f  1
  72  1.5881121e+02 3.51e-04 9.05e+04  -2.4 2.83e-01    -  5.02e-01 4.83e-01f  1
  73  1.5577284e+02 1.73e-04 2.31e+04  -2.6 1.25e-01    -  1.00e+00 7.86e-01H  1
  74  1.5050123e+02 1.24e-04 4.77e+04  -2.8 9.89e-02    -  1.00e+00 5.00e-01f  1
  75  1.4611421e+02 9.79e-05 3.20e+04  -2.9 6.58e-02    -  1.00e+00 7.01e-01f  1
  76  1.4380319e+02 4.73e-05 4.75e+04  -3.2 5.10e-02    -  1.00e+00 4.66e-01f  1
  77  1.4162616e+02 1.28e-04 3.62e+04  -3.4 1.53e-01    -  1.00e+00 4.19e-01f  1
  78  1.4517681e+02 8.33e-04 1.05e+04  -2.7 4.02e-01    -  6.20e-01 4.15e-01f  1
  79  1.4347235e+02 3.22e-04 6.24e+03  -3.0 2.20e-01    -  4.39e-01 4.55e-01f  1
iter    objective    inf_pr   inf_du lg(mu)  ||d||  lg(rg) alpha_du alpha_pr  ls
  80  1.4174863e+02 1.68e-04 3.75e+03  -3.0 1.26e-01    -  3.69e-01 3.54e-01f  2
  81  1.4111813e+02 7.91e-05 1.17e+03  -3.0 4.04e-02    -  1.00e+00 8.50e-01f  1
  82  1.3858469e+02 3.69e-05 1.87e+04  -3.4 8.41e-02    -  1.00e+00 7.16e-01f  1
  83  1.4464533e+02 8.64e-04 2.98e+04  -2.5 7.82e-01    -  2.60e-01 3.27e-01F  1
  84  1.4157754e+02 7.10e-04 9.08e+03  -3.0 2.07e-01    -  5.38e-01 6.64e-01f  1
  85  1.4006288e+02 3.67e-04 5.59e+03  -3.0 2.78e-01    -  4.81e-01 4.11e-01f  1
  86  1.3973930e+02 1.37e-04 4.63e+02  -3.0 1.18e-01    -  1.00e+00 9.37e-01f  1
  87  1.3952351e+02 4.86e-05 1.41e+00  -3.0 3.78e-02    -  1.00e+00 1.00e+00f  1
  88  1.3930184e+02 1.09e-04 1.30e+00  -3.0 5.62e-02    -  1.00e+00 1.00e+00f  1
  89  1.3910932e+02 6.23e-05 1.68e+00  -3.0 3.88e-02    -  1.00e+00 1.00e+00f  1
iter    objective    inf_pr   inf_du lg(mu)  ||d||  lg(rg) alpha_du alpha_pr  ls
  90  1.3736395e+02 4.03e-05 1.98e+04  -3.3 9.04e-02    -  9.99e-01 6.47e-01f  1
  91  1.3662764e+02 1.61e-04 6.14e+03  -3.3 3.19e-01    -  1.00e+00 6.06e-01F  1
  92  1.3709254e+02 2.20e-04 4.58e+04  -2.9 6.61e-01    -  1.00e+00 3.02e-01f  1
  93  1.3701373e+02 3.42e-04 3.84e+04  -3.1 1.10e+00    -  1.61e-01 2.01e-01f  1
  94  1.3632227e+02 5.10e-04 1.84e+04  -3.1 2.50e-01    -  5.24e-01 4.33e-01f  1
  95  1.3930029e+02 3.73e-04 3.47e+04  -2.7 1.43e-01    -  7.64e-01 5.00e-01f  2
  96  1.3771266e+02 9.49e-05 3.06e+03  -2.9 5.85e-02    -  1.00e+00 7.66e-01f  1
  97  1.3741708e+02 6.10e-05 1.23e+00  -2.9 3.91e-02    -  1.00e+00 1.00e+00f  1
  98  1.3728035e+02 7.21e-05 1.79e+00  -2.9 6.98e-02    -  1.00e+00 1.00e+00f  1
  99  1.4029440e+02 1.36e-03 2.94e+04  -2.7 4.76e-01    -  7.22e-01 4.15e-01f  1
iter    objective    inf_pr   inf_du lg(mu)  ||d||  lg(rg) alpha_du alpha_pr  ls
 100  1.3909754e+02 3.16e-04 1.23e+03  -2.9 8.98e-02    -  8.94e-01 8.10e-01f  1
 101  1.3759491e+02 2.42e-04 6.06e+02  -2.9 1.03e-01    -  8.41e-01 6.54e-01f  1
 102  1.3731458e+02 1.02e-04 1.20e+00  -2.9 4.41e-02    -  1.00e+00 1.00e+00f  1
 103  1.3464742e+02 9.39e-05 3.19e+04  -3.3 1.07e-01    -  1.00e+00 6.45e-01f  1
 104  1.3275170e+02 1.55e-04 3.46e+04  -3.8 1.96e-01    -  1.00e+00 4.51e-01f  1
 105  1.3205714e+02 1.95e-04 2.34e+04  -3.7 4.54e-01    -  8.54e-01 2.71e-01f  1
 106  1.3143740e+02 1.07e-04 1.28e+04  -3.6 3.49e-01    -  8.10e-01 3.15e-01f  1
 107  1.3168292e+02 6.97e-05 1.13e+04  -3.2 1.82e-01    -  9.36e-01 3.58e-01f  2
 108  1.3163037e+02 7.42e-05 1.70e+02  -3.3 8.73e-02    -  9.73e-01 1.00e+00f  1
 109  1.3071062e+02 9.00e-05 1.31e+04  -3.7 1.29e-01    -  1.00e+00 5.61e-01f  1
iter    objective    inf_pr   inf_du lg(mu)  ||d||  lg(rg) alpha_du alpha_pr  ls
 110  1.2990952e+02 2.88e-04 6.45e+03  -4.0 1.17e-01    -  1.00e+00 7.20e-01f  1
 111  1.3046361e+02 1.46e-04 8.79e+02  -3.5 3.19e-02    -  9.59e-01 1.00e+00f  1
 112  1.2984353e+02 5.51e-05 6.05e+03  -3.9 2.33e-02    -  1.00e+00 6.59e-01f  1
 113  1.2946888e+02 1.78e-05 3.01e+03  -4.0 8.16e-03    -  1.00e+00 6.84e-01f  1
 114  1.2926017e+02 4.48e-06 6.51e-01  -4.0 1.67e-02    -  1.00e+00 1.00e+00f  1
 115  1.3018553e+02 1.88e-04 1.03e+03  -3.4 3.41e-01    -  3.30e-01 2.90e-01f  1
 116  1.2970789e+02 1.40e-04 2.24e+01  -3.8 1.04e-01    -  6.38e-01 5.28e-01f  1
 117  1.2937780e+02 1.10e-04 2.85e+02  -3.8 8.07e-02    -  4.44e-01 2.46e-01f  1
 118  1.2923224e+02 6.85e-05 2.52e+02  -3.8 4.58e-02    -  5.12e-01 4.12e-01f  1
 119  1.2919940e+02 5.41e-05 1.33e+02  -3.8 5.25e-02    -  9.91e-01 2.50e-01f  3
iter    objective    inf_pr   inf_du lg(mu)  ||d||  lg(rg) alpha_du alpha_pr  ls
 120  1.2892449e+02 3.02e-05 5.19e-01  -4.0 2.22e-02    -  1.00e+00 1.00e+00f  1
 121  1.2888064e+02 2.94e-05 7.87e-01  -4.0 1.96e-02    -  1.00e+00 1.00e+00f  1
 122  1.2885263e+02 1.49e-05 8.34e-01  -4.0 1.93e-02    -  1.00e+00 1.00e+00f  1
 123  1.2882729e+02 1.75e-05 1.23e+00  -4.0 3.44e-02    -  1.00e+00 5.00e-01f  2
 124  1.2880087e+02 1.49e-05 9.90e-01  -4.0 2.06e-02    -  1.00e+00 1.00e+00f  1
 125  1.2878822e+02 1.81e-05 4.71e+00  -4.0 5.20e-02    -  1.00e+00 2.50e-01f  3
 126  1.2876606e+02 1.32e-05 2.00e+00  -4.0 5.17e-02    -  1.00e+00 5.00e-01f  2
 127  1.2874972e+02 1.08e-05 3.63e+00  -4.0 6.23e-02    -  1.00e+00 2.50e-01f  3
 128  1.2872874e+02 9.06e-06 2.00e+00  -4.0 4.83e-02    -  1.00e+00 5.00e-01f  2
 129  1.2984630e+02 4.30e-04 2.08e+04  -3.3 3.81e-01    -  8.41e-01 3.44e-01f  1
iter    objective    inf_pr   inf_du lg(mu)  ||d||  lg(rg) alpha_du alpha_pr  ls
 130  1.2978157e+02 3.55e-04 1.50e+04  -3.6 3.73e-01    -  2.91e-01 1.69e-01f  1
 131  1.2957534e+02 3.24e-04 1.23e+04  -3.6 5.88e-01    -  1.84e-01 1.50e-01f  2
 132  1.2935633e+02 3.85e-04 1.06e+04  -3.6 1.75e+00    -  1.52e-01 7.88e-02f  2
 133  1.2913144e+02 5.09e-04 9.77e+03  -3.6 2.96e+00    -  7.71e-02 7.44e-02f  1
 134  1.2899311e+02 5.02e-04 8.48e+03  -3.6 1.38e+00    -  1.51e-01 2.52e-02f  1
 135  1.2869749e+02 4.51e-04 6.21e+03  -3.6 5.94e-01    -  2.93e-01 1.39e-01f  1
 136  1.2872629e+02 4.18e-04 2.90e+04  -3.2 3.60e-01    -  9.67e-01 2.43e-01f  1
 137  1.2818891e+02 7.59e-04 1.74e+04  -3.9 4.78e-01    -  3.51e-01 2.89e-01f  1
 138  1.2792976e+02 5.16e-04 7.63e+03  -3.5 2.79e-01    -  5.76e-01 3.71e-01f  1
 139  1.2734815e+02 3.23e-04 1.90e+03  -3.6 1.61e-01    -  7.10e-01 5.25e-01f  1
iter    objective    inf_pr   inf_du lg(mu)  ||d||  lg(rg) alpha_du alpha_pr  ls
 140  1.2723055e+02 2.42e-04 7.23e+02  -3.5 1.82e-01    -  7.16e-01 1.71e-01f  3
 141  1.2686771e+02 1.76e-04 1.03e+04  -3.9 4.88e-02    -  1.00e+00 2.92e-01f  1
 142  1.2632849e+02 6.97e-05 5.44e+03  -4.0 1.56e-02    -  1.00e+00 6.18e-01f  1
 143  1.2608608e+02 3.05e-05 2.12e+03  -4.0 3.63e-02    -  9.44e-01 6.10e-01f  1
 144  1.2623222e+02 1.58e-05 1.10e+03  -3.7 4.28e-02    -  8.73e-01 7.01e-01f  1
 145  1.2604201e+02 1.54e-05 4.47e+03  -4.0 6.11e-02    -  1.00e+00 4.21e-01f  2
 146  1.2581677e+02 2.76e-05 4.14e+02  -4.0 4.82e-02    -  1.00e+00 9.07e-01f  1
 147  1.2573832e+02 3.44e-05 5.96e+01  -4.0 4.17e-02    -  1.00e+00 8.49e-01f  1
 148  1.2573825e+02 1.73e-05 5.27e+00  -4.0 2.10e-02    -  1.00e+00 9.32e-01f  1
 149  1.2566469e+02 4.52e-06 2.15e-01  -4.0 9.83e-03    -  1.00e+00 1.00e+00f  1
iter    objective    inf_pr   inf_du lg(mu)  ||d||  lg(rg) alpha_du alpha_pr  ls
 150  1.2565705e+02 6.34e-07 8.41e-02  -4.0 5.61e-03    -  1.00e+00 1.00e+00h  1
 151  1.2565381e+02 6.75e-06 7.49e-01  -4.0 2.36e-02    -  1.00e+00 1.00e+00f  1
 152  1.2564742e+02 1.69e-05 2.12e+00  -4.0 1.43e-01    -  1.00e+00 2.99e-01f  2
 153  1.2564443e+02 1.41e-05 2.06e+00  -4.0 4.52e-02    -  1.00e+00 2.50e-01f  3
 154  1.2562643e+02 1.48e-05 4.25e-01  -4.0 2.37e-02    -  1.00e+00 1.00e+00f  1
 155  1.2562037e+02 9.04e-06 3.00e+00  -4.0 4.71e-02    -  1.00e+00 2.50e-01h  3
 156  1.2561542e+02 3.14e-06 2.51e-01  -4.0 1.49e-02    -  1.00e+00 1.00e+00h  1
 157  1.2561238e+02 4.01e-06 1.76e+00  -4.0 3.04e-02    -  1.00e+00 5.00e-01h  2
 158  1.2561666e+02 3.63e-08 1.33e+00  -4.0 2.38e-02    -  1.00e+00 1.00e+00H  1
 159  1.2561311e+02 7.49e-06 1.82e+00  -4.0 3.33e-02    -  1.00e+00 5.00e-01f  2
iter    objective    inf_pr   inf_du lg(mu)  ||d||  lg(rg) alpha_du alpha_pr  ls
 160  1.2555400e+02 1.13e-05 1.02e+03  -4.1 7.17e-02    -  1.00e+00 5.00e-01f  2
 161  1.2555788e+02 8.60e-06 7.62e+02  -4.0 3.57e-02    -  1.00e+00 2.50e-01f  3
 162  1.2558166e+02 5.72e-06 3.21e-01  -4.0 1.65e-02    -  1.00e+00 1.00e+00h  1
 163  1.2557761e+02 5.99e-06 2.58e+00  -4.0 4.15e-02    -  1.00e+00 2.50e-01h  3
 164  1.2559246e+02 4.91e-07 2.72e+00  -4.0 6.77e-02    -  1.00e+00 1.00e+00H  1
 165  1.2644897e+02 1.69e-04 3.06e+04  -3.3 9.06e-01    -  1.00e+00 2.73e-01f  1
 166  1.2643786e+02 1.52e-04 2.32e+04  -3.6 2.12e+00    -  2.88e-01 5.26e-02f  2
 167  1.2641663e+02 1.87e-04 2.07e+04  -3.6 2.81e+00    -  1.28e-01 3.52e-02f  2
 168  1.2636754e+02 1.66e-04 1.63e+04  -3.6 6.29e-01    -  2.53e-01 1.05e-01f  2
 169  1.2634697e+02 1.20e-04 2.79e+03  -3.6 2.11e-01    -  1.00e+00 4.15e-01f  1
iter    objective    inf_pr   inf_du lg(mu)  ||d||  lg(rg) alpha_du alpha_pr  ls
 170  1.2613289e+02 1.22e-04 1.65e+03  -3.6 1.12e-01    -  4.90e-01 4.07e-01f  2
 171  1.2598822e+02 6.23e-05 8.84e+02  -3.6 1.07e-01    -  1.00e+00 4.65e-01f  1
 172  1.2593144e+02 3.34e-05 4.42e+02  -3.6 8.13e-02    -  1.00e+00 5.00e-01f  2
 173  1.2591510e+02 1.74e-05 2.21e+02  -3.6 4.83e-02    -  1.00e+00 5.00e-01f  2
 174  1.2588495e+02 2.14e-05 4.92e-01  -3.6 3.27e-02    -  1.00e+00 1.00e+00f  1
 175  1.2587343e+02 4.79e-06 1.96e+00  -3.6 1.73e-02    -  1.00e+00 5.00e-01f  2
 176  1.2585510e+02 1.02e-05 2.74e-01  -3.6 1.69e-02    -  1.00e+00 1.00e+00h  1
 177  1.2584603e+02 8.50e-06 2.76e+00  -3.6 3.50e-02    -  1.00e+00 2.50e-01f  3
 178  1.2584053e+02 1.36e-05 1.60e+00  -3.6 2.79e-02    -  1.00e+00 5.00e-01f  2
 179  1.2583773e+02 2.50e-05 8.78e-01  -3.6 2.48e-02    -  1.00e+00 1.00e+00f  1
iter    objective    inf_pr   inf_du lg(mu)  ||d||  lg(rg) alpha_du alpha_pr  ls
 180  1.2582277e+02 1.90e-05 1.67e+00  -3.6 6.33e-02    -  1.00e+00 2.50e-01h  3
 181  1.2584986e+02 3.10e-08 9.76e-01  -3.6 1.45e-02    -  1.00e+00 1.00e+00H  1
 182  1.2580639e+02 8.43e-06 5.16e-01  -3.6 1.92e-02    -  1.00e+00 1.00e+00f  1
 183  1.2580180e+02 6.36e-06 1.62e-01  -3.6 5.58e-03    -  1.00e+00 1.00e+00h  1
 184  1.2580149e+02 1.92e-06 1.77e-01  -3.6 4.69e-03    -  1.00e+00 1.00e+00h  1
 185  1.2579299e+02 9.55e-07 2.43e-01  -3.6 4.21e-03    -  1.00e+00 1.00e+00h  1
 186  1.2579664e+02 4.92e-09 5.35e-02  -3.6 9.99e-03    -  1.00e+00 1.00e+00H  1
 187  1.2496464e+02 7.05e-06 1.77e+00  -4.0 1.73e-02    -  1.00e+00 1.00e+00f  1
 188  1.2490826e+02 1.17e-05 2.76e+00  -4.0 2.62e-02    -  1.00e+00 1.00e+00f  1
 189  1.2492178e+02 8.92e-06 5.98e-01  -4.0 2.40e-02    -  1.00e+00 1.00e+00f  1
iter    objective    inf_pr   inf_du lg(mu)  ||d||  lg(rg) alpha_du alpha_pr  ls
 190  1.2488661e+02 5.72e-06 5.01e-01  -4.0 8.44e-03    -  1.00e+00 1.00e+00f  1
 191  1.2488035e+02 6.77e-07 2.33e-01  -4.0 1.02e-02    -  1.00e+00 1.00e+00h  1
 192  1.2772406e+02 2.48e-04 2.89e+04  -3.1 3.97e-01    -  9.80e-01 6.00e-01f  1
 193  1.2771950e+02 2.24e-04 1.75e+04  -3.3 9.10e-01    -  3.94e-01 2.62e-01f  1
 194  1.2763070e+02 2.45e-04 1.60e+04  -3.3 1.46e+00    -  8.52e-02 8.45e-02f  2
 195  1.2707630e+02 2.33e-04 6.01e+01  -3.3 1.69e-01    -  1.00e+00 3.94e-01f  1
 196  1.2678955e+02 1.43e-04 3.07e+01  -3.3 1.03e-01    -  1.00e+00 4.89e-01f  2
 197  1.2673266e+02 1.03e-04 1.53e+01  -3.3 7.97e-02    -  1.00e+00 5.00e-01f  2
 198  1.2650380e+02 2.41e-05 1.53e+00  -3.3 5.08e-02    -  1.00e+00 1.00e+00f  1
 199  1.2651275e+02 2.01e-05 1.00e+00  -3.3 3.64e-02    -  1.00e+00 1.00e+00f  1
iter    objective    inf_pr   inf_du lg(mu)  ||d||  lg(rg) alpha_du alpha_pr  ls
 200  1.2639987e+02 8.02e-06 3.69e-01  -3.3 6.62e-03    -  1.00e+00 1.00e+00f  1
 201  1.2637301e+02 4.11e-06 1.30e-01  -3.3 9.32e-03    -  1.00e+00 1.00e+00h  1
 202  1.2634843e+02 1.98e-05 1.62e+00  -3.3 1.61e-01    -  9.16e-01 2.50e-01f  3
 203  1.2633772e+02 2.13e-05 3.37e+00  -3.3 1.29e-01    -  1.00e+00 2.50e-01f  3
 204  1.2632260e+02 1.29e-05 2.09e+00  -3.3 3.88e-02    -  1.00e+00 5.00e-01f  2
 205  1.2628422e+02 1.14e-05 2.13e+00  -3.3 2.75e-02    -  1.00e+00 5.00e-01f  2
 206  1.2627323e+02 8.29e-06 6.02e-01  -3.3 1.19e-02    -  1.00e+00 1.00e+00f  1
 207  1.2623869e+02 2.48e-06 1.83e-01  -3.3 4.49e-03    -  1.00e+00 1.00e+00f  1
 208  1.2624526e+02 6.83e-07 8.57e-02  -3.3 6.72e-03    -  1.00e+00 1.00e+00h  1
 209  1.2622607e+02 2.03e-05 3.22e+00  -3.3 6.21e-02    -  1.00e+00 1.00e+00f  1
iter    objective    inf_pr   inf_du lg(mu)  ||d||  lg(rg) alpha_du alpha_pr  ls
 210  1.2621736e+02 1.86e-05 3.84e+00  -3.3 2.43e-01    -  7.74e-01 5.17e-02f  5
 211  1.2621237e+02 1.39e-05 3.42e+00  -3.3 4.84e-02    -  1.00e+00 2.50e-01h  3
 212  1.2621308e+02 8.00e-06 4.14e-01  -3.3 1.31e-02    -  1.00e+00 1.00e+00h  1
 213  1.2621005e+02 4.75e-06 1.23e+00  -3.3 1.05e-02    -  1.00e+00 5.00e-01h  2
 214  1.2619175e+02 1.92e-06 7.52e-02  -3.3 9.02e-03    -  1.00e+00 1.00e+00h  1
 215  1.2619027e+02 3.71e-06 6.95e-01  -3.3 1.66e-02    -  1.00e+00 1.00e+00h  1
 216  1.2618392e+02 6.42e-06 1.72e+00  -3.3 1.21e-01    -  5.27e-01 1.67e-01f  3
 217  1.2617837e+02 7.63e-06 4.26e+00  -3.3 2.38e-01    -  1.00e+00 7.91e-02f  4
 218  1.2617561e+02 5.79e-06 4.06e+00  -3.3 2.23e-01    -  6.70e-01 6.25e-02f  5
 219  1.2617488e+02 1.77e-05 3.56e+00  -3.3 2.04e-01    -  1.00e+00 1.25e-01f  4
iter    objective    inf_pr   inf_du lg(mu)  ||d||  lg(rg) alpha_du alpha_pr  ls
 220  1.2617116e+02 1.66e-05 4.13e+00  -3.3 2.39e-01    -  1.00e+00 1.25e-01f  4
 221  1.2616941e+02 2.56e-05 5.15e+00  -3.3 5.29e-01    -  7.28e-01 6.51e-02f  4
 222  1.2616136e+02 1.80e-05 6.80e+00  -3.3 6.11e-01    -  1.00e+00 1.14e-01f  3
 223  1.2615446e+02 5.21e-05 8.03e+00  -3.3 1.16e+00    -  1.98e-01 6.30e-02f  3
 224  1.2614796e+02 2.71e-05 8.39e+00  -3.3 6.17e-01    -  9.08e-01 1.07e-01f  3
 225  1.2614394e+02 2.50e-05 7.83e+00  -3.3 2.19e-01    -  1.00e+00 2.36e-01f  3
 226  1.2726578e+02 3.73e-04 5.27e+00  -3.3 7.44e-02    -  1.00e+00 1.00e+00w  1
 227  1.2603837e+02 3.41e-04 3.63e+00  -3.3 6.71e-02    -  7.03e-01 1.00e+00f  1
 228  1.2603230e+02 1.84e-04 2.63e+00  -3.3 6.70e-02    -  6.28e-01 5.00e-01f  2
 229  1.2596866e+02 8.83e-05 2.78e+00  -3.3 3.12e-02    -  1.00e+00 5.00e-01h  2
iter    objective    inf_pr   inf_du lg(mu)  ||d||  lg(rg) alpha_du alpha_pr  ls
 230  1.2592350e+02 2.09e-05 6.61e-01  -3.3 2.73e-02    -  1.00e+00 1.00e+00f  1
 231  1.2588886e+02 9.55e-06 3.93e-01  -3.3 2.04e-02    -  1.00e+00 1.00e+00h  1
 232  1.2588171e+02 2.84e-06 2.35e-01  -3.3 6.57e-03    -  1.00e+00 1.00e+00h  1
 233  1.2586530e+02 1.12e-06 2.03e-01  -3.3 4.39e-03    -  1.00e+00 1.00e+00h  1
 234  1.2586533e+02 1.68e-06 1.28e-01  -3.3 9.91e-03    -  1.00e+00 1.00e+00h  1
 235  1.2585952e+02 4.53e-06 7.80e-01  -3.3 3.17e-02    -  1.00e+00 5.00e-01f  2
 236  1.2585499e+02 2.93e-06 1.79e+00  -3.3 4.26e-02    -  1.00e+00 2.50e-01h  3
 237  1.2587168e+02 5.45e-09 7.79e-02  -3.3 1.30e-02    -  1.00e+00 1.00e+00H  1
 238  1.2585881e+02 3.51e-06 3.18e-01  -3.3 1.14e-02    -  1.00e+00 1.00e+00f  1
 239  1.2584664e+02 1.47e-06 1.80e-01  -3.3 4.10e-03    -  1.00e+00 1.00e+00h  1
iter    objective    inf_pr   inf_du lg(mu)  ||d||  lg(rg) alpha_du alpha_pr  ls
 240  1.2583855e+02 8.86e-07 9.93e-02  -3.3 4.19e-03    -  1.00e+00 1.00e+00h  1
 241  1.2584407e+02 2.37e-07 1.22e-01  -3.3 2.85e-03    -  1.00e+00 1.00e+00h  1
 242  1.2584058e+02 2.70e-07 1.51e-01  -3.3 3.39e-03    -  1.00e+00 1.00e+00h  1
 243  1.2583906e+02 1.35e-06 4.74e-01  -3.3 1.20e-02    -  1.00e+00 5.00e-01h  2
 244  1.2584661e+02 1.98e-08 5.72e-02  -3.3 1.28e-02    -  1.00e+00 1.00e+00H  1
 245  1.2585169e+02 1.22e-08 5.94e-02  -3.3 5.95e-03    -  1.00e+00 1.00e+00F  1
 246  1.2584093e+02 3.49e-07 8.46e-01  -3.3 6.30e-03    -  1.00e+00 5.00e-01f  2
 247  1.2584031e+02 2.48e-07 6.19e-02  -3.3 3.20e-03    -  1.00e+00 1.00e+00h  1
 248  1.2583810e+02 3.00e-08 2.28e-02  -3.3 1.40e-03    -  1.00e+00 1.00e+00h  1
 249  1.2583798e+02 4.72e-07 3.76e-01  -3.3 2.68e-02    -  1.00e+00 2.50e-01f  3
iter    objective    inf_pr   inf_du lg(mu)  ||d||  lg(rg) alpha_du alpha_pr  ls
 250  1.2583799e+02 5.38e-07 6.08e-01  -3.3 4.19e-02    -  1.00e+00 1.25e-01h  4
 251  1.2584217e+02 4.56e-08 4.99e-01  -3.3 2.27e-02    -  1.00e+00 1.00e+00H  1
 252  1.2583995e+02 8.43e-07 1.29e+00  -3.3 8.90e-02    -  8.85e-01 5.66e-02f  5
 253  1.2583649e+02 6.94e-07 1.85e+00  -3.3 3.40e-02    -  1.00e+00 1.25e-01f  4
 254  1.2583885e+02 2.94e-06 4.08e-01  -3.3 9.28e-03    -  1.00e+00 1.00e+00f  1
 255  1.2583553e+02 1.27e-07 4.36e-01  -3.3 9.31e-03    -  1.00e+00 1.00e+00H  1
 256  1.2580927e+02 1.76e-06 1.50e-01  -3.3 5.25e-03    -  1.00e+00 1.00e+00f  1
 257  1.2580659e+02 4.70e-07 5.25e-02  -3.3 5.97e-03    -  1.00e+00 1.00e+00h  1
 258  1.2580489e+02 1.87e-05 1.11e+00  -3.3 1.09e-01    -  4.44e-01 2.55e-01f  2
 259  1.2580135e+02 1.28e-05 4.64e+00  -3.3 1.51e-01    -  1.00e+00 9.32e-02h  4
iter    objective    inf_pr   inf_du lg(mu)  ||d||  lg(rg) alpha_du alpha_pr  ls
 260  1.2579913e+02 2.43e-05 1.53e+00  -3.3 6.53e-02    -  1.00e+00 5.00e-01f  2
 261  1.2579091e+02 1.39e-05 1.13e+00  -3.3 4.30e-02    -  1.00e+00 2.50e-01h  3
 262  1.2580384e+02 1.21e-08 9.75e-02  -3.3 9.08e-03    -  1.00e+00 1.00e+00H  1
 263  1.2576339e+02 8.06e-06 9.89e-02  -3.3 9.58e-03    -  1.00e+00 1.00e+00f  1
 264  1.2577217e+02 1.43e-06 1.00e-01  -3.3 5.70e-03    -  1.00e+00 1.00e+00h  1
 265  1.2576773e+02 2.37e-06 7.17e-02  -3.3 9.94e-03    -  1.00e+00 1.00e+00h  1
 266  1.2576525e+02 2.77e-06 5.81e-01  -3.3 4.86e-02    -  1.00e+00 2.50e-01h  3
 267  1.2581852e+02 1.51e-08 1.08e-01  -3.3 1.58e-02    -  1.00e+00 1.00e+00H  1
 268  1.2576547e+02 1.60e-05 1.27e-01  -3.3 1.53e-02    -  1.00e+00 1.00e+00f  1
 269  1.2576546e+02 8.29e-06 6.59e-01  -3.3 5.53e-03    -  1.00e+00 5.00e-01h  2
iter    objective    inf_pr   inf_du lg(mu)  ||d||  lg(rg) alpha_du alpha_pr  ls
 270  1.2576387e+02 1.10e-06 2.39e-02  -3.3 5.18e-03    -  1.00e+00 1.00e+00h  1
 271  1.2576219e+02 3.16e-07 1.01e-01  -3.3 5.00e-03    -  1.00e+00 1.00e+00h  1
 272  1.2576107e+02 1.61e-06 1.42e+00  -3.3 1.26e-01    -  1.00e+00 6.25e-02f  5
 273  1.2576124e+02 1.20e-06 1.57e+00  -3.3 1.16e-01    -  1.00e+00 6.25e-02h  5
 274  1.2576883e+02 4.03e-09 5.61e-02  -3.3 7.90e-03    -  1.00e+00 1.00e+00H  1
 275  1.2400541e+02 7.17e-06 8.14e+03  -4.0 1.06e-02    -  1.00e+00 8.23e-01f  1
 276  1.2351219e+02 1.55e-05 1.21e+03  -4.0 1.44e-02    -  1.00e+00 8.51e-01f  1
 277  1.2347233e+02 9.04e-06 6.07e+02  -4.0 1.46e-02    -  1.00e+00 5.00e-01h  2
 278  1.2342258e+02 1.51e-06 1.37e-01  -4.0 8.78e-03    -  1.00e+00 1.00e+00h  1
 279  1.2341671e+02 1.45e-06 1.28e+00  -4.0 1.22e-02    -  1.00e+00 5.00e-01h  2
iter    objective    inf_pr   inf_du lg(mu)  ||d||  lg(rg) alpha_du alpha_pr  ls
 280  1.2340452e+02 8.42e-07 3.72e-01  -4.0 4.57e-03    -  1.00e+00 1.00e+00h  1
 281  1.2340431e+02 2.34e-09 5.60e-02  -4.0 6.25e-03    -  1.00e+00 1.00e+00H  1
 282  1.2339551e+02 6.66e-07 2.22e-01  -4.0 3.05e-03    -  1.00e+00 1.00e+00f  1
 283  1.2339301e+02 2.43e-07 7.54e-02  -4.0 1.55e-03    -  1.00e+00 1.00e+00h  1
 284  1.2339028e+02 1.77e-07 1.50e-01  -4.0 3.12e-03    -  1.00e+00 1.00e+00h  1
 285  1.2338671e+02 1.14e-06 9.10e-01  -4.0 3.51e-02    -  1.00e+00 3.53e-01f  2
 286  1.2338491e+02 1.45e-06 1.38e+00  -4.0 4.06e-02    -  1.00e+00 2.14e-01h  3
 287  1.2340934e+02 2.09e-09 8.82e-02  -4.0 1.16e-02    -  1.00e+00 1.00e+00H  1
 288  1.2328140e+02 4.76e-06 7.69e-02  -4.1 1.11e-02    -  1.00e+00 1.00e+00f  1
 289  1.2338183e+02 2.30e-07 1.25e-01  -4.0 2.60e-03    -  1.00e+00 1.00e+00h  1
iter    objective    inf_pr   inf_du lg(mu)  ||d||  lg(rg) alpha_du alpha_pr  ls
 290  1.2337702e+02 1.11e-07 3.31e-02  -4.0 2.10e-03    -  1.00e+00 1.00e+00h  1
 291  1.2337890e+02 2.83e-08 1.90e-02  -4.0 6.30e-04    -  1.00e+00 1.00e+00h  1
 292  1.2338114e+02 6.79e-07 1.68e-01  -4.0 4.45e-03    -  1.00e+00 1.00e+00h  1
 293  1.2328037e+02 1.30e-06 5.18e-01  -4.1 8.85e-03    -  1.00e+00 1.00e+00f  1
 294  1.2337911e+02 6.41e-07 4.86e-01  -4.0 5.03e-03    -  1.00e+00 1.00e+00f  1
 295  1.2327680e+02 3.57e-07 1.21e-01  -4.1 2.75e-03    -  1.00e+00 1.00e+00f  1
 296  1.2337470e+02 5.69e-08 4.07e-02  -4.0 6.66e-04    -  1.00e+00 1.00e+00f  1
 297  1.2337591e+02 5.31e-08 4.52e-02  -4.0 1.19e-03    -  1.00e+00 1.00e+00h  1
 298  1.2337534e+02 2.25e-07 1.44e-01  -4.0 2.78e-03    -  1.00e+00 1.00e+00h  1
 299  1.2332591e+02 3.63e-07 1.00e+03  -4.1 1.01e-02    -  1.00e+00 5.00e-01f  2
iter    objective    inf_pr   inf_du lg(mu)  ||d||  lg(rg) alpha_du alpha_pr  ls
 300  1.2327203e+02 4.24e-07 1.26e-01  -4.1 2.16e-03    -  1.00e+00 1.00e+00h  1
 301  1.2337335e+02 1.67e-07 3.18e-02  -4.0 1.88e-03    -  1.00e+00 1.00e+00f  1
 302  1.2337373e+02 9.04e-08 3.56e-02  -4.0 8.22e-04    -  1.00e+00 1.00e+00h  1
 303  1.2337290e+02 3.37e-08 2.48e-02  -4.0 8.03e-04    -  1.00e+00 1.00e+00h  1
 304  1.2337256e+02 1.86e-08 2.99e-02  -4.0 6.92e-04    -  1.00e+00 1.00e+00h  1
 305  1.2337260e+02 7.74e-08 5.48e-02  -4.0 2.52e-03    -  1.00e+00 1.00e+00h  1
 306  1.2332337e+02 1.66e-06 1.00e+03  -4.1 2.05e-02    -  1.00e+00 5.00e-01f  2
 307  1.2331591e+02 8.46e-09 1.27e-01  -4.1 1.19e-02    -  1.00e+00 1.00e+00H  1
 308  1.2413595e+02 1.16e-05 2.44e-01  -3.6 2.71e-02    -  1.00e+00 1.00e+00f  1
 309  1.2412203e+02 1.16e-05 4.41e+03  -3.7 4.47e-02    -  1.00e+00 6.25e-02h  5
iter    objective    inf_pr   inf_du lg(mu)  ||d||  lg(rg) alpha_du alpha_pr  ls
 310  1.2389683e+02 1.24e-06 4.88e-02  -3.7 7.46e-03    -  1.00e+00 1.00e+00h  1
 311  1.2391757e+02 1.07e-09 6.72e-02  -3.7 7.17e-03    -  1.00e+00 1.00e+00H  1
 312  1.2389516e+02 3.35e-06 5.47e-02  -3.7 5.22e-03    -  1.00e+00 1.00e+00f  1
 313  1.2389820e+02 2.22e-07 5.92e-02  -3.7 1.20e-03    -  1.00e+00 1.00e+00h  1
 314  1.2389661e+02 8.94e-08 2.09e-02  -3.7 7.95e-04    -  1.00e+00 1.00e+00h  1
 315  1.2389642e+02 2.78e-09 3.00e-03  -3.7 3.06e-04    -  1.00e+00 1.00e+00h  1
 316  1.2389834e+02 1.35e-07 1.41e-01  -3.7 3.15e-03    -  1.00e+00 1.00e+00h  1
 317  1.2391345e+02 7.02e-10 6.10e-02  -3.7 1.22e-02    -  1.00e+00 1.00e+00H  1
 318  1.2390082e+02 6.25e-10 2.55e-02  -3.7 7.50e-03    -  1.00e+00 1.00e+00F  1
 319  1.2389803e+02 1.73e-07 8.86e-01  -3.7 1.10e-02    -  1.00e+00 2.50e-01f  3
iter    objective    inf_pr   inf_du lg(mu)  ||d||  lg(rg) alpha_du alpha_pr  ls
 320  1.2389941e+02 1.95e-07 6.71e-02  -3.7 1.76e-03    -  1.00e+00 1.00e+00h  1
 321  1.2389939e+02 6.63e-08 3.48e-02  -3.7 9.70e-04    -  1.00e+00 1.00e+00h  1
 322  1.2389917e+02 1.20e-08 3.81e-03  -3.7 4.42e-04    -  1.00e+00 1.00e+00h  1
 323  1.2389914e+02 1.91e-09 1.28e-03  -3.7 1.13e-04    -  1.00e+00 1.00e+00h  1
 324  1.2336001e+02 4.20e-07 4.94e+03  -4.5 3.77e-03    -  1.00e+00 7.04e-01f  1
 325  1.2312977e+02 1.57e-06 1.83e+03  -4.5 9.21e-03    -  1.00e+00 6.28e-01f  1
 326  1.2338319e+02 2.13e-06 5.07e+02  -4.0 8.05e-03    -  9.23e-01 1.00e+00f  1
 327  1.2326400e+02 1.35e-06 9.06e-02  -4.1 4.01e-03    -  1.00e+00 1.00e+00f  1
 328  1.2337473e+02 6.07e-07 1.14e-01  -4.0 2.99e-03    -  1.00e+00 1.00e+00f  1
 329  1.2326945e+02 3.30e-07 1.22e-02  -4.1 2.48e-03    -  1.00e+00 1.00e+00f  1
iter    objective    inf_pr   inf_du lg(mu)  ||d||  lg(rg) alpha_du alpha_pr  ls
 330  1.2337338e+02 2.21e-07 6.33e-02  -4.0 1.10e-03    -  1.00e+00 1.00e+00f  1
 331  1.2326898e+02 2.00e-07 1.77e-02  -4.1 1.28e-03    -  1.00e+00 1.00e+00f  1
 332  1.2337223e+02 8.15e-08 2.66e-02  -4.0 1.25e-03    -  1.00e+00 1.00e+00f  1
 333  1.2326922e+02 9.23e-08 2.82e-02  -4.1 1.30e-03    -  1.00e+00 1.00e+00f  1
 334  1.2337259e+02 1.37e-07 3.35e-02  -4.0 1.71e-03    -  1.00e+00 1.00e+00f  1
 335  1.2326914e+02 3.57e-07 6.32e-02  -4.1 1.94e-03    -  1.00e+00 1.00e+00f  1
 336  1.2326840e+02 1.33e-07 1.78e-02  -4.1 1.67e-03    -  1.00e+00 1.00e+00h  1
 337  1.2337196e+02 4.32e-08 1.27e-02  -4.0 1.18e-03    -  1.00e+00 1.00e+00f  1
 338  1.2326990e+02 2.02e-07 1.30e-01  -4.1 1.59e-03    -  1.00e+00 1.00e+00f  1
 339  1.2326807e+02 8.94e-08 1.96e-02  -4.1 1.43e-03    -  1.00e+00 1.00e+00h  1
iter    objective    inf_pr   inf_du lg(mu)  ||d||  lg(rg) alpha_du alpha_pr  ls
 340  1.2337205e+02 1.11e-07 2.39e-02  -4.0 1.24e-03    -  1.00e+00 1.00e+00f  1
 341  1.2326822e+02 8.95e-08 3.51e-02  -4.1 1.19e-03    -  1.00e+00 1.00e+00f  1
 342  1.2326796e+02 2.36e-11 1.15e-02  -4.1 2.33e-03    -  1.00e+00 1.00e+00H  1
 343  1.2337249e+02 2.84e-07 6.95e-02  -4.0 1.72e-03    -  1.00e+00 1.00e+00f  1
 344  1.2326857e+02 2.39e-07 5.79e-02  -4.1 2.54e-03    -  1.00e+00 1.00e+00f  1
 345  1.2326769e+02 8.89e-08 2.41e-02  -4.1 1.06e-03    -  1.00e+00 1.00e+00h  1
 346  1.2337262e+02 1.73e-07 9.30e-02  -4.0 2.21e-03    -  1.00e+00 1.00e+00f  1
 347  1.2326759e+02 1.92e-07 4.03e-02  -4.1 1.49e-03    -  1.00e+00 1.00e+00f  1
 348  1.2337248e+02 3.21e-07 9.56e-02  -4.0 1.93e-03    -  1.00e+00 1.00e+00f  1
 349  1.2326782e+02 2.27e-07 1.53e-02  -4.1 1.43e-03    -  1.00e+00 1.00e+00f  1
iter    objective    inf_pr   inf_du lg(mu)  ||d||  lg(rg) alpha_du alpha_pr  ls
 350  1.2326786e+02 2.39e-08 3.78e-02  -4.1 7.14e-04    -  1.00e+00 1.00e+00h  1
 351  1.2337098e+02 6.40e-08 2.72e-02  -4.0 1.37e-03    -  1.00e+00 1.00e+00f  1
 352  1.2326944e+02 2.08e-07 8.52e-02  -4.1 1.81e-03    -  1.00e+00 1.00e+00f  1
 353  1.2326746e+02 1.90e-07 1.06e-02  -4.1 1.75e-03    -  1.00e+00 1.00e+00h  1
 354  1.2337052e+02 4.97e-08 1.93e-02  -4.0 1.13e-03    -  1.00e+00 1.00e+00f  1
 355  1.2326739e+02 1.48e-07 3.69e-02  -4.1 1.54e-03    -  1.00e+00 1.00e+00f  1
 356  1.2337278e+02 6.53e-07 8.52e-02  -4.0 2.14e-03    -  1.00e+00 1.00e+00f  1
 357  1.2326746e+02 6.01e-07 5.98e-02  -4.1 2.08e-03    -  1.00e+00 1.00e+00f  1
 358  1.2326697e+02 6.85e-08 5.01e-02  -4.1 1.60e-03    -  1.00e+00 1.00e+00h  1
 359  1.2337054e+02 5.14e-08 2.46e-02  -4.0 1.13e-03    -  1.00e+00 1.00e+00f  1
iter    objective    inf_pr   inf_du lg(mu)  ||d||  lg(rg) alpha_du alpha_pr  ls
 360  1.2326667e+02 7.58e-08 1.72e-02  -4.1 1.66e-03    -  1.00e+00 1.00e+00f  1
 361  1.2332177e+02 2.55e-07 9.99e+02  -4.0 4.74e-03    -  1.00e+00 5.00e-01f  2
 362  1.2324132e+02 3.47e-07 2.47e-02  -4.1 2.07e-03    -  1.00e+00 1.00e+00f  1
 363  1.2337121e+02 1.93e-07 4.37e-02  -4.0 1.38e-03    -  1.00e+00 1.00e+00f  1
 364  1.2326733e+02 2.64e-07 5.53e-02  -4.1 2.56e-03    -  1.00e+00 1.00e+00f  1
 365  1.2327629e+02 2.54e-10 7.39e-02  -4.1 6.91e-03    -  1.00e+00 1.00e+00H  1
 366  1.2326864e+02 5.23e-10 2.93e-02  -4.1 5.98e-03    -  1.00e+00 1.00e+00F  1
 367  1.2326693e+02 1.30e-07 8.19e-01  -4.1 3.73e-03    -  1.00e+00 5.00e-01f  2
 368  1.2326724e+02 1.68e-07 7.67e-02  -4.1 1.89e-03    -  1.00e+00 1.00e+00h  1
 369  1.2326628e+02 7.47e-08 2.88e-02  -4.1 1.14e-03    -  1.00e+00 1.00e+00h  1
iter    objective    inf_pr   inf_du lg(mu)  ||d||  lg(rg) alpha_du alpha_pr  ls
 370  1.2336821e+02 4.43e-08 2.77e-02  -4.0 1.96e-03    -  1.00e+00 1.00e+00f  1
 371  1.2331973e+02 3.08e-07 9.97e+02  -4.1 5.06e-03    -  1.00e+00 5.00e-01f  2
 372  1.2326637e+02 2.82e-07 9.88e-03  -4.1 2.40e-03    -  1.00e+00 1.00e+00h  1
 373  1.2326633e+02 7.88e-09 5.33e-03  -4.1 2.96e-04    -  1.00e+00 1.00e+00h  1
 374  1.2336913e+02 5.19e-08 1.38e-02  -4.0 1.76e-03    -  1.00e+00 1.00e+00f  1
 375  1.2326809e+02 2.63e-07 9.26e-02  -4.1 4.52e-03    -  1.00e+00 1.00e+00f  1
 376  1.2326525e+02 2.32e-07 8.82e-02  -4.1 1.91e-03    -  1.00e+00 1.00e+00h  1
 377  1.2337015e+02 1.49e-07 7.60e-02  -4.0 3.32e-03    -  1.00e+00 1.00e+00f  1
 378  1.2332052e+02 1.81e-07 9.99e+02  -4.1 3.94e-03    -  1.00e+00 5.00e-01f  2
 379  1.2326560e+02 2.38e-07 1.61e-02  -4.1 2.91e-03    -  1.00e+00 1.00e+00h  1
iter    objective    inf_pr   inf_du lg(mu)  ||d||  lg(rg) alpha_du alpha_pr  ls
 380  1.2337066e+02 1.19e-07 4.65e-02  -4.0 2.71e-03    -  1.00e+00 1.00e+00f  1
 381  1.2326870e+02 6.59e-07 9.13e-02  -4.1 3.82e-03    -  1.00e+00 1.00e+00f  1
 382  1.2326822e+02 1.04e-10 3.78e-02  -4.1 2.41e-03    -  1.00e+00 1.00e+00H  1
 383  1.2326636e+02 1.18e-07 3.75e-02  -4.1 1.92e-03    -  1.00e+00 1.00e+00f  1
 384  1.2326566e+02 6.66e-09 4.93e-03  -4.1 3.00e-04    -  1.00e+00 1.00e+00h  1
 385  1.2336939e+02 6.90e-08 2.65e-02  -4.0 2.66e-03    -  1.00e+00 1.00e+00f  1
 386  1.2332108e+02 5.77e-07 9.99e+02  -4.1 5.65e-03    -  1.00e+00 5.00e-01f  2
 387  1.2326568e+02 6.55e-07 9.92e-03  -4.1 3.33e-03    -  1.00e+00 1.00e+00h  1
 388  1.2326623e+02 2.60e-08 5.82e-02  -4.1 6.77e-04    -  1.00e+00 1.00e+00h  1
 389  1.2326567e+02 1.85e-08 1.23e-03  -4.1 5.90e-04    -  1.00e+00 1.00e+00h  1
iter    objective    inf_pr   inf_du lg(mu)  ||d||  lg(rg) alpha_du alpha_pr  ls
 390  1.2326567e+02 9.00e-12 2.71e-04  -4.1 1.41e-05    -  1.00e+00 1.00e+00h  1

Number of Iterations....: 390

                                   (scaled)                 (unscaled)
Objective...............:   4.6822757206842375e+01    1.2326567263605348e+02
Dual infeasibility......:   2.7065606720921842e-04    7.1252963660794002e-04
Constraint violation....:   9.0048335270580954e-12    9.0048335270580954e-12
Variable bound violation:   0.0000000000000000e+00    0.0000000000000000e+00
Complementarity.........:   8.0029843031787868e-05    2.1068670494332851e-04
Overall NLP error.......:   2.7065606720921842e-04    7.1252963660794002e-04


Number of objective function evaluations             = 828
Number of objective gradient evaluations             = 391
Number of equality constraint evaluations            = 828
Number of inequality constraint evaluations          = 828
Number of equality constraint Jacobian evaluations   = 391
Number of inequality constraint Jacobian evaluations = 391
Number of Lagrangian Hessian evaluations             = 0
Total seconds in IPOPT                               = 191.525

EXIT: Optimal Solution Found.
